SDVRP instances/p01/p01_3070_tsplib0_split0.vrp
NAME:.\SDVRP_split
BEST_KNOWN: 0
COMMENT: 0
DIMENSION: 258
CAPACITY: 160
EDGE_WEIGHT_FORMAT: FUNCTION
EDGE_WEIGHT_TYPE: EXACT_2D
NODE_COORD_SECTION
1 0.00000 0.00000
2 7 12
3 7 12
4 7 12
5 7 12
6 7 12
7 7 12
8 19 9
9 19 9
10 19 9
11 19 9
12 22 24
13 22 24
14 22 24
15 22 24
16 22 24
17 22 24
18 -10 -14
19 -10 -14
20 -10 -14
21 -10 -14
22 -10 -14
23 10 -10
24 10 -10
25 10 -10
26 10 -10
27 10 -10
28 -9 7
29 -9 7
30 -9 7
31 -9 7
32 -9 7
33 -9 7
34 -9 7
35 -13 23
36 -13 23
37 -13 23
38 -13 23
39 -13 23
40 -13 23
41 -13 23
42 1 22
43 1 22
44 1 22
45 1 22
46 1 22
47 1 22
48 22 -7
49 22 -7
50 22 -7
51 22 -7
52 22 -7
53 22 -7
54 21 -19
55 21 -19
56 21 -19
57 12 1
58 12 1
59 12 1
60 12 1
61 12 1
62 1 -8
63 1 -8
64 1 -8
65 1 -8
66 -25 -15
67 -25 -15
68 -25 -15
69 -25 -15
70 -25 -15
71 -25 -15
72 -18 2
73 -18 2
74 -18 2
75 -18 2
76 6 -24
77 6 -24
78 6 -24
79 6 -24
80 6 -24
81 6 -24
82 22 1
83 22 1
84 22 1
85 22 1
86 -3 -17
87 -3 -17
88 -3 -17
89 -3 -17
90 -3 -17
91 -13 -7
92 -13 -7
93 -13 -7
94 -17 -27
95 -17 -27
96 -17 -27
97 -17 -27
98 -17 -27
99 -17 -27
100 27 18
101 27 18
102 27 18
103 27 18
104 32 2
105 32 2
106 32 2
107 32 2
108 32 2
109 12 17
110 12 17
111 12 17
112 12 17
113 -14 17
114 -14 17
115 -14 17
116 -14 17
117 -14 17
118 -22 12
119 -22 12
120 -22 12
121 -22 12
122 -22 12
123 -22 12
124 -23 -2
125 -23 -2
126 -23 -2
127 -23 -2
128 -3 28
129 -3 28
130 -3 28
131 -3 28
132 -3 28
133 -3 28
134 -3 28
135 0 8
136 0 8
137 0 8
138 13 27
139 13 27
140 13 27
141 13 27
142 28 8
143 28 8
144 28 8
145 28 8
146 28 -13
147 28 -13
148 28 -13
149 28 -13
150 28 -13
151 7 29
152 7 29
153 7 29
154 7 29
155 7 29
156 7 29
157 8 6
158 8 6
159 8 6
160 8 6
161 8 6
162 16 -30
163 16 -30
164 16 -30
165 16 -30
166 16 -30
167 16 -30
168 31 -7
169 31 -7
170 31 -7
171 31 -7
172 31 -7
173 31 -7
174 32 23
175 32 23
176 32 23
177 32 23
178 32 23
179 32 23
180 33 29
181 33 29
182 33 29
183 33 29
184 33 29
185 33 29
186 2 -18
187 2 -18
188 2 -18
189 2 -18
190 15 -5
191 15 -5
192 15 -5
193 15 -5
194 15 -5
195 15 -5
196 29 -25
197 29 -25
198 29 -25
199 29 -25
200 29 -25
201 29 -25
202 29 -25
203 -25 -34
204 -25 -34
205 -25 -34
206 -25 -34
207 -25 -34
208 -25 -34
209 -20 -23
210 -20 -23
211 -20 -23
212 -20 -23
213 -20 -23
214 -9 -30
215 -9 -30
216 -9 -30
217 -9 -30
218 -25 24
219 -25 24
220 -25 24
221 -25 24
222 0 -25
223 0 -25
224 0 -25
225 0 -25
226 0 -25
227 9 -30
228 9 -30
229 9 -30
230 9 -30
231 2 -1
232 2 -1
233 2 -1
234 -5 -8
235 -5 -8
236 -5 -8
237 -5 -8
238 -5 -8
239 -5 -8
240 -5 -8
241 -5 15
242 -5 15
243 -5 15
244 -5 15
245 -5 15
246 18 -12
247 18 -12
248 18 -12
249 18 -12
250 18 -12
251 18 -12
252 26 -3
253 26 -3
254 26 -3
255 26 -3
256 26 -3
257 26 -3
258 26 -3
DEMAND_SECTION
1 0
2 32
3 32
4 32
5 2
6 2
7 2
8 32
9 32
10 8
11 1
12 32
13 16
14 8
15 2
16 2
17 2
18 32
19 32
20 16
21 2
22 1
23 32
24 32
25 32
26 8
27 2
28 32
29 32
30 32
31 2
32 2
33 2
34 1
35 32
36 32
37 8
38 2
39 2
40 2
41 1
42 32
43 16
44 2
45 2
46 2
47 1
48 32
49 16
50 8
51 2
52 2
53 1
54 32
55 16
56 2
57 32
58 32
59 32
60 2
61 1
62 32
63 32
64 8
65 1
66 32
67 32
68 8
69 2
70 2
71 1
72 32
73 32
74 16
75 1
76 32
77 32
78 16
79 8
80 2
81 2
82 32
83 32
84 2
85 1
86 32
87 16
88 2
89 2
90 1
91 32
92 32
93 16
94 32
95 32
96 32
97 2
98 2
99 2
100 32
101 32
102 16
103 2
104 32
105 16
106 2
107 2
108 2
109 32
110 32
111 16
112 8
113 32
114 32
115 16
116 8
117 1
118 32
119 32
120 16
121 2
122 2
123 1
124 32
125 32
126 32
127 2
128 32
129 32
130 16
131 8
132 2
133 2
134 2
135 32
136 16
137 2
138 32
139 32
140 32
141 1
142 32
143 16
144 8
145 1
146 32
147 16
148 2
149 2
150 2
151 32
152 32
153 32
154 2
155 2
156 2
157 32
158 32
159 32
160 2
161 1
162 32
163 32
164 32
165 2
166 2
167 1
168 32
169 16
170 8
171 2
172 2
173 1
174 32
175 32
176 32
177 2
178 2
179 2
180 32
181 32
182 8
183 2
184 2
185 2
186 32
187 32
188 32
189 1
190 32
191 32
192 8
193 2
194 2
195 2
196 32
197 32
198 8
199 2
200 2
201 2
202 1
203 32
204 32
205 32
206 2
207 2
208 1
209 32
210 16
211 8
212 2
213 2
214 32
215 16
216 2
217 2
218 32
219 32
220 16
221 8
222 32
223 32
224 16
225 8
226 2
227 32
228 32
229 32
230 8
231 32
232 32
233 2
234 32
235 32
236 8
237 2
238 2
239 2
240 1
241 32
242 32
243 8
244 2
245 1
246 32
247 32
248 32
249 2
250 2
251 2
252 32
253 32
254 16
255 2
256 2
257 2
258 1
DEPOT_SECTION
1
-1
EOF