SDVRP instances/p01/p01_3070_tsplib0_split0.sol
257 -3 1 158 156 157 -13 11 15 14 12 16 140 137 138 139 -26 25 55 53 201 197 200 196 198 195 199 248 249 245 -27 219 218 220 217 115 112 -31 29 28 32 33 30 122 117 121 120 119 118 -41 45 42 150 155 151 153 154 152 -48 251 255 253 252 256 257 254 105 104 103 106 107 84 83 -51 52 50 49 47 170 171 172 167 168 169 148 146 147 145 149 -54 161 163 164 165 162 166 76 79 78 -59 58 57 60 56 231 232 -61 64 63 185 187 188 87 89 86 234 238 239 -62 23 24 22 230 -68 69 67 66 65 70 72 71 74 73 -80 77 75 227 229 226 228 -82 81 10 7 8 9 159 160 -88 85 225 223 221 224 222 186 -90 18 17 21 20 19 233 235 237 236 -91 92 125 126 123 124 -93 95 94 209 211 210 212 208 -97 96 98 207 205 203 202 204 206 214 216 213 215 -100 102 101 99 179 182 184 183 181 180 -109 108 110 111 2 6 5 4 134 -114 113 116 37 39 35 34 38 36 40 240 -135 136 44 46 43 130 127 129 133 128 131 132 242 241 243 244 -142 141 144 143 174 177 178 176 175 173 -191 192 193 189 190 194 250 247 246 0 





OBJ=
1526.657
BEST_KNOWN=
0.000